(set-info :smt-lib-version 2.6)
(set-info :category "crafted")
(set-logic QF_FF)
(define-sort FF0 () (_ FiniteField 52435875175126190479447740508185965837690552500527637822603658699938581184513))
(declare-fun k () Bool)
(declare-fun a () Bool)
(declare-fun f () Bool)
(declare-fun i () Bool)
(declare-fun d () Bool)
(declare-fun c () Bool)
(declare-fun e () Bool)
(declare-fun l () Bool)
(declare-fun j () Bool)
(declare-fun h () Bool)
(declare-fun g () Bool)
(declare-fun b () Bool)
(declare-fun out () FF0)
(declare-fun _31 () FF0)
(declare-fun _10 () FF0)
(declare-fun _30 () FF0)
(declare-fun _17 () FF0)
(declare-fun _16 () FF0)
(declare-fun _29 () FF0)
(declare-fun _23 () FF0)
(declare-fun _22 () FF0)
(declare-fun _28 () FF0)
(declare-fun _11 () FF0)
(declare-fun _27 () FF0)
(declare-fun _9 () FF0)
(declare-fun _26 () FF0)
(declare-fun _7 () FF0)
(declare-fun _25 () FF0)
(declare-fun _6 () FF0)
(declare-fun _1 () FF0)
(declare-fun _3 () FF0)
(declare-fun _4 () FF0)
(declare-fun _2 () FF0)
(declare-fun _0 () FF0)
(declare-fun _8 () FF0)
(declare-fun _5 () FF0)
(assert 
  (let ((let0 k))
  (let ((let1 (not let0)))
  (let ((let2 a))
  (let ((let3 f))
  (let ((let4 i))
  (let ((let5 (ite let4 let3 let2)))
  (let ((let6 d))
  (let ((let7 c))
  (let ((let8 e))
  (let ((let9 (ite let8 let7 let6)))
  (let ((let10 l))
  (let ((let11 j))
  (let ((let12 h))
  (let ((let13 g))
  (let ((let14 b))
  (let ((let15 (and let14 let13 let12 let11 let10 let9 let5 let1)))
  (let ((let16 out))
  (let ((let17 (as ff1 FF0)))
  (let ((let18 (= let17 let16)))
  (let ((let19 (= let18 let15)))
  (let ((let20 (as ff0 FF0)))
  (let ((let21 (= let20 let16)))
  (let ((let22 (or let18 let21)))
  (let ((let23 (and let22 let19)))
  (let ((let24 _31))
  (let ((let25 (= let24 let16)))
  (let ((let26 (as ff52435875175126190479447740508185965837690552500527637822603658699938581184512 FF0)))
  (let ((let27 _10))
  (let ((let28 (ff.mul let27 let26)))
  (let ((let29 (ff.add let28 let17)))
  (let ((let30 _30))
  (let ((let31 (ff.mul let30 let29)))
  (let ((let32 (= let31 let24)))
  (let ((let33 _17))
  (let ((let34 _16))
  (let ((let35 (ff.add let34 let33)))
  (let ((let36 _29))
  (let ((let37 (ff.mul let36 let35)))
  (let ((let38 (= let37 let30)))
  (let ((let39 _23))
  (let ((let40 _22))
  (let ((let41 (ff.add let40 let39)))
  (let ((let42 _28))
  (let ((let43 (ff.mul let42 let41)))
  (let ((let44 (= let43 let36)))
  (let ((let45 _11))
  (let ((let46 _27))
  (let ((let47 (ff.mul let46 let45)))
  (let ((let48 (= let47 let42)))
  (let ((let49 _9))
  (let ((let50 _26))
  (let ((let51 (ff.mul let50 let49)))
  (let ((let52 (= let51 let46)))
  (let ((let53 _7))
  (let ((let54 _25))
  (let ((let55 (ff.mul let54 let53)))
  (let ((let56 (= let55 let50)))
  (let ((let57 _6))
  (let ((let58 _1))
  (let ((let59 (ff.mul let58 let57)))
  (let ((let60 (= let59 let54)))
  (let ((let61 _3))
  (let ((let62 _4))
  (let ((let63 (ff.mul let62 let26)))
  (let ((let64 (ff.add let63 let17)))
  (let ((let65 (ff.mul let64 let61)))
  (let ((let66 (= let65 let39)))
  (let ((let67 _2))
  (let ((let68 (ff.mul let62 let67)))
  (let ((let69 (= let68 let40)))
  (let ((let70 _0))
  (let ((let71 _8))
  (let ((let72 (ff.mul let71 let26)))
  (let ((let73 (ff.add let72 let17)))
  (let ((let74 (ff.mul let73 let70)))
  (let ((let75 (= let74 let33)))
  (let ((let76 _5))
  (let ((let77 (ff.mul let71 let76)))
  (let ((let78 (= let77 let34)))
  (let ((let79 (ff.mul let45 let45)))
  (let ((let80 (= let79 let45)))
  (let ((let81 (ff.mul let27 let27)))
  (let ((let82 (= let81 let27)))
  (let ((let83 (ff.mul let49 let49)))
  (let ((let84 (= let83 let49)))
  (let ((let85 (ff.mul let71 let71)))
  (let ((let86 (= let85 let71)))
  (let ((let87 (ff.mul let53 let53)))
  (let ((let88 (= let87 let53)))
  (let ((let89 (ff.mul let57 let57)))
  (let ((let90 (= let89 let57)))
  (let ((let91 (ff.mul let76 let76)))
  (let ((let92 (= let91 let76)))
  (let ((let93 (ff.mul let62 let62)))
  (let ((let94 (= let93 let62)))
  (let ((let95 (ff.mul let61 let61)))
  (let ((let96 (= let95 let61)))
  (let ((let97 (ff.mul let67 let67)))
  (let ((let98 (= let97 let67)))
  (let ((let99 (ff.mul let58 let58)))
  (let ((let100 (= let99 let58)))
  (let ((let101 (ff.mul let70 let70)))
  (let ((let102 (= let101 let70)))
  (let ((let103 (and let102 let100 let98 let96 let94 let92 let90 let88 let86 let84 let82 let80 let78 let75 let69 let66 let60 let56 let52 let48 let44 let38 let32 let25)))
  (let ((let104 (ite let3 let17 let20)))
  (let ((let105 (= let76 let104)))
  (let ((let106 (ite let4 let17 let20)))
  (let ((let107 (= let71 let106)))
  (let ((let108 (ite let13 let17 let20)))
  (let ((let109 (= let57 let108)))
  (let ((let110 (ite let12 let17 let20)))
  (let ((let111 (= let53 let110)))
  (let ((let112 (ite let2 let17 let20)))
  (let ((let113 (= let70 let112)))
  (let ((let114 (ite let11 let17 let20)))
  (let ((let115 (= let49 let114)))
  (let ((let116 (ite let6 let17 let20)))
  (let ((let117 (= let61 let116)))
  (let ((let118 (ite let8 let17 let20)))
  (let ((let119 (= let62 let118)))
  (let ((let120 (ite let14 let17 let20)))
  (let ((let121 (= let58 let120)))
  (let ((let122 (ite let10 let17 let20)))
  (let ((let123 (= let45 let122)))
  (let ((let124 (ite let0 let17 let20)))
  (let ((let125 (= let27 let124)))
  (let ((let126 (ite let7 let17 let20)))
  (let ((let127 (= let67 let126)))
  (let ((let128 (and let127 let125 let123 let121 let119 let117 let115 let113 let111 let109 let107 let105)))
  (let ((let129 (and let128 let103)))
  (let ((let130 (=> let129 let23)))
  (let ((let131 (not let130)))
  let131
))))))))))))))))))))))))))))))))))))))))))))))))))))))))))))))))))))))))))))))))))))))))))))))))))))))))))))))))))))))))))))))))))))
)
(check-sat)
